log		./dla.lammps.log
units 		metal
dimension	3
boundary	p	p	p
atom_style	atomic
variable a equal 5.43 

lattice		diamond ${a} 
region		whole block 0 8 0 8 0 8
region		selected block 0 3 0 3 0 3
region		walk block 0 1 0 1 0 1
create_box	1 whole

region		upper block INF INF INF INF INF INF units box 
create_atoms	1 region upper

mass            *       28.06

pair_style      snap	
pair_coeff	* * Si_Zuo_JPCA2020.snapcoeff Si_Zuo_JPCA2020.snapparam Si

compute peratom all pe/atom 

group		sg region selected
group		wlk region walk
dump		3 sg custom 1 ./liquid.lammpsdump id type xs ys zs vx vy vz fx fy fz
dump_modify	3 sort id 
dump		4 wlk custom 1 ./walk.lammpsdump id type xs ys zs
dump_modify	4 sort id 

fix 0 all box/relax aniso 30000.0 vmax 0.001
minimize 1.0e-8 1.0e-8 1000 1000
unfix 0

write_restart diamond.min

timestep 0.005
thermo 10
thermo_style custom step lx ly lz press pxx pyy pzz pe temp
velocity all create 1800 12345 mom yes rot no
fix 1 all nvt temp 1800 1800 $(100.0*dt)
run 10000
unfix 1
undump		3

write_restart liquid.equil 

fix 1 all nvt temp 1800 300 $(100.0*dt)
run 50000
unfix 1

write_restart liquid.amorph

dump		5 sg custom 1 ./amorph.lammpsdump id type xs ys zs vx vy vz fx fy fz
dump_modify	5 sort id 

fix 1 all nvt temp 300 300 $(100.0*dt)
run 10000
unfix 1
